NAME 
OBJSENSE MAX
ROWS
 N  OBJ
 L  packing[0]
 L  packing[1]
 L  packing[2]
 L  packing[3]
 L  packing[4]
 L  packing[5]
 L  packing[6]
 L  packing[7]
 L  packing[8]
 L  packing[9]
 L  packing[10]
 L  packing[11]
 L  packing[12]
 L  packing[13]
 L  packing[14]
 L  packing[15]
 L  packing[16]
 L  packing[17]
 L  packing[18]
 L  packing[19]
 L  packing[20]
 L  packing[21]
 L  packing[22]
 L  packing[23]
 L  packing[24]
 L  packing[25]
 L  packing[26]
 L  packing[27]
 L  packing[28]
 L  packing[29]
 L  packing[30]
 L  packing[31]
 L  packing[32]
 L  packing[33]
 L  packing[34]
 L  packing[35]
 L  packing[36]
 L  packing[37]
 L  packing[38]
 L  packing[39]
 L  packing[40]
 L  packing[41]
 L  packing[42]
 L  packing[43]
 L  packing[44]
 L  packing[45]
 L  packing[46]
 L  packing[47]
 L  packing[48]
 L  packing[49]
COLUMNS
    MARKER    'MARKER'                 'INTORG'
    x[1]      OBJ       39
    x[1]      packing[0]  188
    x[1]      packing[1]  131
    x[1]      packing[2]  76
    x[1]      packing[4]  17
    x[1]      packing[5]  115
    x[1]      packing[8]  37
    x[1]      packing[9]  115
    x[1]      packing[10]  87
    x[1]      packing[11]  135
    x[1]      packing[12]  71
    x[1]      packing[13]  118
    x[1]      packing[14]  24
    x[1]      packing[15]  106
    x[1]      packing[17]  89
    x[1]      packing[18]  22
    x[1]      packing[19]  117
    x[1]      packing[20]  129
    x[1]      packing[22]  9
    x[1]      packing[23]  117
    x[1]      packing[24]  166
    x[1]      packing[25]  142
    x[1]      packing[27]  5
    x[1]      packing[28]  141
    x[1]      packing[29]  197
    x[1]      packing[33]  108
    x[1]      packing[34]  136
    x[1]      packing[35]  53
    x[1]      packing[36]  20
    x[1]      packing[37]  123
    x[1]      packing[38]  182
    x[1]      packing[39]  182
    x[1]      packing[40]  182
    x[1]      packing[41]  8
    x[1]      packing[43]  109
    x[1]      packing[44]  172
    x[1]      packing[45]  135
    x[1]      packing[46]  120
    x[1]      packing[48]  3
    x[1]      packing[49]  45
    x[2]      OBJ       191
    x[2]      packing[0]  180
    x[2]      packing[1]  124
    x[2]      packing[3]  133
    x[2]      packing[5]  83
    x[2]      packing[6]  14
    x[2]      packing[8]  109
    x[2]      packing[9]  199
    x[2]      packing[10]  144
    x[2]      packing[12]  120
    x[2]      packing[13]  133
    x[2]      packing[14]  90
    x[2]      packing[16]  4
    x[2]      packing[17]  110
    x[2]      packing[18]  24
    x[2]      packing[20]  122
    x[2]      packing[21]  65
    x[2]      packing[22]  79
    x[2]      packing[23]  192
    x[2]      packing[24]  130
    x[2]      packing[25]  86
    x[2]      packing[26]  93
    x[2]      packing[27]  26
    x[2]      packing[28]  40
    x[2]      packing[29]  193
    x[2]      packing[30]  180
    x[2]      packing[31]  150
    x[2]      packing[32]  160
    x[2]      packing[34]  34
    x[2]      packing[35]  81
    x[2]      packing[36]  89
    x[2]      packing[37]  87
    x[2]      packing[38]  26
    x[2]      packing[39]  144
    x[2]      packing[42]  159
    x[2]      packing[44]  198
    x[2]      packing[45]  172
    x[2]      packing[46]  127
    x[2]      packing[47]  50
    x[2]      packing[49]  192
    x[3]      OBJ       19
    x[3]      packing[1]  65
    x[3]      packing[2]  166
    x[3]      packing[3]  90
    x[3]      packing[4]  123
    x[3]      packing[5]  66
    x[3]      packing[6]  184
    x[3]      packing[7]  113
    x[3]      packing[8]  6
    x[3]      packing[9]  184
    x[3]      packing[12]  14
    x[3]      packing[13]  68
    x[3]      packing[15]  101
    x[3]      packing[16]  136
    x[3]      packing[17]  58
    x[3]      packing[18]  23
    x[3]      packing[19]  121
    x[3]      packing[20]  158
    x[3]      packing[22]  124
    x[3]      packing[23]  43
    x[3]      packing[25]  106
    x[3]      packing[26]  75
    x[3]      packing[27]  184
    x[3]      packing[28]  57
    x[3]      packing[29]  63
    x[3]      packing[30]  11
    x[3]      packing[31]  50
    x[3]      packing[32]  26
    x[3]      packing[33]  12
    x[3]      packing[34]  5
    x[3]      packing[36]  84
    x[3]      packing[38]  199
    x[3]      packing[40]  175
    x[3]      packing[41]  36
    x[3]      packing[42]  129
    x[3]      packing[43]  199
    x[3]      packing[44]  181
    x[3]      packing[47]  101
    x[3]      packing[48]  58
    x[3]      packing[49]  198
    x[4]      OBJ       58
    x[4]      packing[1]  6
    x[4]      packing[2]  73
    x[4]      packing[3]  119
    x[4]      packing[4]  86
    x[4]      packing[5]  143
    x[4]      packing[7]  20
    x[4]      packing[8]  24
    x[4]      packing[9]  129
    x[4]      packing[10]  87
    x[4]      packing[11]  195
    x[4]      packing[13]  157
    x[4]      packing[15]  68
    x[4]      packing[16]  1
    x[4]      packing[17]  9
    x[4]      packing[18]  109
    x[4]      packing[19]  37
    x[4]      packing[20]  116
    x[4]      packing[21]  19
    x[4]      packing[22]  146
    x[4]      packing[24]  184
    x[4]      packing[25]  105
    x[4]      packing[27]  127
    x[4]      packing[28]  40
    x[4]      packing[31]  27
    x[4]      packing[33]  6
    x[4]      packing[34]  6
    x[4]      packing[35]  195
    x[4]      packing[36]  49
    x[4]      packing[37]  198
    x[4]      packing[40]  197
    x[4]      packing[41]  165
    x[4]      packing[42]  93
    x[4]      packing[43]  98
    x[4]      packing[44]  151
    x[4]      packing[45]  146
    x[4]      packing[46]  113
    x[4]      packing[47]  127
    x[4]      packing[49]  97
    x[5]      OBJ       163
    x[5]      packing[1]  186
    x[5]      packing[2]  88
    x[5]      packing[3]  167
    x[5]      packing[4]  73
    x[5]      packing[7]  155
    x[5]      packing[8]  103
    x[5]      packing[9]  165
    x[5]      packing[10]  40
    x[5]      packing[11]  128
    x[5]      packing[12]  141
    x[5]      packing[15]  44
    x[5]      packing[16]  56
    x[5]      packing[19]  35
    x[5]      packing[21]  102
    x[5]      packing[22]  160
    x[5]      packing[24]  29
    x[5]      packing[25]  55
    x[5]      packing[26]  87
    x[5]      packing[29]  141
    x[5]      packing[30]  78
    x[5]      packing[31]  101
    x[5]      packing[32]  60
    x[5]      packing[33]  123
    x[5]      packing[34]  48
    x[5]      packing[35]  7
    x[5]      packing[36]  107
    x[5]      packing[38]  44
    x[5]      packing[39]  50
    x[5]      packing[40]  186
    x[5]      packing[41]  198
    x[5]      packing[42]  173
    x[5]      packing[43]  119
    x[5]      packing[44]  126
    x[5]      packing[47]  102
    x[5]      packing[48]  172
    x[5]      packing[49]  25
    x[6]      OBJ       133
    x[6]      packing[0]  22
    x[6]      packing[2]  142
    x[6]      packing[3]  63
    x[6]      packing[4]  197
    x[6]      packing[5]  79
    x[6]      packing[7]  115
    x[6]      packing[8]  80
    x[6]      packing[9]  55
    x[6]      packing[10]  70
    x[6]      packing[11]  66
    x[6]      packing[12]  21
    x[6]      packing[13]  132
    x[6]      packing[14]  151
    x[6]      packing[15]  117
    x[6]      packing[17]  32
    x[6]      packing[18]  165
    x[6]      packing[22]  26
    x[6]      packing[24]  64
    x[6]      packing[25]  59
    x[6]      packing[27]  108
    x[6]      packing[29]  55
    x[6]      packing[31]  36
    x[6]      packing[32]  48
    x[6]      packing[33]  64
    x[6]      packing[34]  193
    x[6]      packing[35]  166
    x[6]      packing[36]  116
    x[6]      packing[37]  133
    x[6]      packing[38]  172
    x[6]      packing[40]  193
    x[6]      packing[42]  4
    x[6]      packing[43]  196
    x[6]      packing[45]  80
    x[6]      packing[46]  187
    x[6]      packing[47]  6
    x[6]      packing[49]  57
    x[7]      OBJ       20
    x[7]      packing[0]  19
    x[7]      packing[1]  145
    x[7]      packing[2]  187
    x[7]      packing[3]  180
    x[7]      packing[4]  90
    x[7]      packing[5]  61
    x[7]      packing[6]  166
    x[7]      packing[7]  58
    x[7]      packing[9]  97
    x[7]      packing[10]  63
    x[7]      packing[12]  110
    x[7]      packing[13]  182
    x[7]      packing[14]  177
    x[7]      packing[15]  134
    x[7]      packing[16]  42
    x[7]      packing[17]  146
    x[7]      packing[18]  89
    x[7]      packing[19]  148
    x[7]      packing[20]  10
    x[7]      packing[21]  186
    x[7]      packing[22]  66
    x[7]      packing[23]  114
    x[7]      packing[26]  91
    x[7]      packing[27]  186
    x[7]      packing[28]  75
    x[7]      packing[29]  198
    x[7]      packing[31]  33
    x[7]      packing[33]  105
    x[7]      packing[35]  153
    x[7]      packing[36]  181
    x[7]      packing[38]  140
    x[7]      packing[39]  147
    x[7]      packing[40]  91
    x[7]      packing[42]  56
    x[7]      packing[44]  199
    x[7]      packing[45]  175
    x[7]      packing[47]  106
    x[7]      packing[49]  157
    x[8]      OBJ       137
    x[8]      packing[1]  64
    x[8]      packing[2]  76
    x[8]      packing[4]  15
    x[8]      packing[5]  95
    x[8]      packing[8]  186
    x[8]      packing[9]  85
    x[8]      packing[10]  2
    x[8]      packing[11]  81
    x[8]      packing[12]  159
    x[8]      packing[13]  34
    x[8]      packing[14]  199
    x[8]      packing[15]  62
    x[8]      packing[16]  196
    x[8]      packing[17]  10
    x[8]      packing[18]  51
    x[8]      packing[19]  79
    x[8]      packing[20]  7
    x[8]      packing[21]  64
    x[8]      packing[22]  22
    x[8]      packing[25]  130
    x[8]      packing[26]  147
    x[8]      packing[27]  81
    x[8]      packing[28]  108
    x[8]      packing[30]  50
    x[8]      packing[31]  12
    x[8]      packing[32]  173
    x[8]      packing[33]  180
    x[8]      packing[34]  91
    x[8]      packing[35]  58
    x[8]      packing[36]  28
    x[8]      packing[37]  5
    x[8]      packing[39]  159
    x[8]      packing[40]  95
    x[8]      packing[41]  188
    x[8]      packing[44]  94
    x[8]      packing[45]  133
    x[8]      packing[46]  89
    x[8]      packing[47]  16
    x[8]      packing[48]  124
    x[8]      packing[49]  135
    x[9]      OBJ       94
    x[9]      packing[1]  141
    x[9]      packing[2]  162
    x[9]      packing[3]  44
    x[9]      packing[4]  157
    x[9]      packing[7]  171
    x[9]      packing[9]  146
    x[9]      packing[11]  150
    x[9]      packing[13]  92
    x[9]      packing[14]  119
    x[9]      packing[16]  17
    x[9]      packing[17]  84
    x[9]      packing[19]  85
    x[9]      packing[21]  7
    x[9]      packing[22]  186
    x[9]      packing[24]  78
    x[9]      packing[25]  96
    x[9]      packing[26]  95
    x[9]      packing[27]  133
    x[9]      packing[29]  178
    x[9]      packing[30]  119
    x[9]      packing[31]  134
    x[9]      packing[32]  163
    x[9]      packing[33]  71
    x[9]      packing[34]  1
    x[9]      packing[35]  91
    x[9]      packing[37]  180
    x[9]      packing[38]  76
    x[9]      packing[39]  184
    x[9]      packing[42]  114
    x[9]      packing[44]  130
    x[9]      packing[47]  119
    x[9]      packing[49]  81
    x[10]     OBJ       186
    x[10]     packing[2]  127
    x[10]     packing[5]  137
    x[10]     packing[9]  148
    x[10]     packing[10]  111
    x[10]     packing[11]  45
    x[10]     packing[12]  30
    x[10]     packing[14]  100
    x[10]     packing[15]  22
    x[10]     packing[17]  8
    x[10]     packing[18]  149
    x[10]     packing[19]  45
    x[10]     packing[20]  67
    x[10]     packing[21]  25
    x[10]     packing[22]  164
    x[10]     packing[23]  49
    x[10]     packing[25]  171
    x[10]     packing[26]  81
    x[10]     packing[27]  103
    x[10]     packing[29]  9
    x[10]     packing[30]  96
    x[10]     packing[31]  21
    x[10]     packing[32]  177
    x[10]     packing[33]  112
    x[10]     packing[34]  118
    x[10]     packing[35]  97
    x[10]     packing[36]  76
    x[10]     packing[37]  92
    x[10]     packing[38]  84
    x[10]     packing[39]  196
    x[10]     packing[40]  196
    x[10]     packing[41]  21
    x[10]     packing[42]  136
    x[10]     packing[43]  139
    x[10]     packing[44]  193
    x[10]     packing[46]  91
    x[10]     packing[47]  91
    x[10]     packing[49]  109
    x[11]     OBJ       155
    x[11]     packing[1]  179
    x[11]     packing[2]  158
    x[11]     packing[3]  83
    x[11]     packing[4]  185
    x[11]     packing[5]  143
    x[11]     packing[6]  159
    x[11]     packing[7]  192
    x[11]     packing[8]  189
    x[11]     packing[9]  31
    x[11]     packing[10]  44
    x[11]     packing[12]  6
    x[11]     packing[13]  158
    x[11]     packing[14]  169
    x[11]     packing[17]  63
    x[11]     packing[18]  10
    x[11]     packing[19]  84
    x[11]     packing[20]  125
    x[11]     packing[21]  157
    x[11]     packing[23]  43
    x[11]     packing[24]  157
    x[11]     packing[25]  41
    x[11]     packing[26]  40
    x[11]     packing[27]  20
    x[11]     packing[28]  73
    x[11]     packing[29]  167
    x[11]     packing[30]  123
    x[11]     packing[31]  39
    x[11]     packing[32]  80
    x[11]     packing[33]  161
    x[11]     packing[35]  115
    x[11]     packing[39]  7
    x[11]     packing[41]  163
    x[11]     packing[42]  147
    x[11]     packing[43]  102
    x[11]     packing[44]  75
    x[11]     packing[45]  5
    x[11]     packing[47]  35
    x[11]     packing[48]  19
    x[12]     OBJ       78
    x[12]     packing[0]  189
    x[12]     packing[1]  160
    x[12]     packing[2]  137
    x[12]     packing[3]  111
    x[12]     packing[5]  165
    x[12]     packing[6]  82
    x[12]     packing[7]  51
    x[12]     packing[8]  107
    x[12]     packing[9]  42
    x[12]     packing[10]  139
    x[12]     packing[11]  145
    x[12]     packing[12]  83
    x[12]     packing[13]  23
    x[12]     packing[14]  195
    x[12]     packing[15]  155
    x[12]     packing[16]  13
    x[12]     packing[17]  101
    x[12]     packing[18]  81
    x[12]     packing[20]  51
    x[12]     packing[21]  11
    x[12]     packing[24]  76
    x[12]     packing[25]  143
    x[12]     packing[26]  145
    x[12]     packing[27]  69
    x[12]     packing[28]  68
    x[12]     packing[29]  186
    x[12]     packing[30]  61
    x[12]     packing[31]  44
    x[12]     packing[32]  59
    x[12]     packing[33]  178
    x[12]     packing[34]  196
    x[12]     packing[35]  47
    x[12]     packing[37]  195
    x[12]     packing[38]  42
    x[12]     packing[39]  140
    x[12]     packing[40]  136
    x[12]     packing[41]  54
    x[12]     packing[43]  24
    x[12]     packing[44]  185
    x[12]     packing[45]  141
    x[12]     packing[46]  42
    x[12]     packing[47]  185
    x[12]     packing[48]  190
    x[12]     packing[49]  6
    x[13]     OBJ       108
    x[13]     packing[0]  170
    x[13]     packing[1]  182
    x[13]     packing[2]  123
    x[13]     packing[4]  69
    x[13]     packing[5]  197
    x[13]     packing[6]  126
    x[13]     packing[7]  152
    x[13]     packing[10]  68
    x[13]     packing[12]  86
    x[13]     packing[13]  78
    x[13]     packing[14]  113
    x[13]     packing[15]  37
    x[13]     packing[16]  155
    x[13]     packing[17]  164
    x[13]     packing[18]  146
    x[13]     packing[19]  88
    x[13]     packing[21]  37
    x[13]     packing[22]  180
    x[13]     packing[23]  148
    x[13]     packing[24]  52
    x[13]     packing[25]  154
    x[13]     packing[28]  129
    x[13]     packing[29]  73
    x[13]     packing[31]  15
    x[13]     packing[33]  84
    x[13]     packing[35]  46
    x[13]     packing[36]  70
    x[13]     packing[37]  160
    x[13]     packing[39]  98
    x[13]     packing[42]  51
    x[13]     packing[43]  63
    x[13]     packing[45]  109
    x[13]     packing[46]  57
    x[13]     packing[47]  65
    x[13]     packing[48]  199
    x[14]     OBJ       85
    x[14]     packing[0]  194
    x[14]     packing[2]  197
    x[14]     packing[3]  112
    x[14]     packing[4]  199
    x[14]     packing[7]  127
    x[14]     packing[8]  62
    x[14]     packing[9]  122
    x[14]     packing[10]  4
    x[14]     packing[11]  188
    x[14]     packing[13]  62
    x[14]     packing[14]  15
    x[14]     packing[15]  74
    x[14]     packing[16]  35
    x[14]     packing[17]  98
    x[14]     packing[19]  96
    x[14]     packing[20]  51
    x[14]     packing[21]  198
    x[14]     packing[22]  182
    x[14]     packing[23]  111
    x[14]     packing[24]  15
    x[14]     packing[25]  97
    x[14]     packing[28]  109
    x[14]     packing[29]  36
    x[14]     packing[30]  6
    x[14]     packing[32]  31
    x[14]     packing[33]  191
    x[14]     packing[34]  70
    x[14]     packing[35]  138
    x[14]     packing[37]  193
    x[14]     packing[38]  146
    x[14]     packing[39]  169
    x[14]     packing[40]  92
    x[14]     packing[41]  9
    x[14]     packing[44]  107
    x[14]     packing[45]  108
    x[14]     packing[46]  8
    x[14]     packing[48]  65
    x[14]     packing[49]  169
    x[15]     OBJ       130
    x[15]     packing[0]  141
    x[15]     packing[1]  175
    x[15]     packing[2]  155
    x[15]     packing[3]  153
    x[15]     packing[5]  22
    x[15]     packing[6]  12
    x[15]     packing[8]  187
    x[15]     packing[9]  106
    x[15]     packing[10]  127
    x[15]     packing[11]  67
    x[15]     packing[14]  35
    x[15]     packing[15]  179
    x[15]     packing[16]  25
    x[15]     packing[17]  175
    x[15]     packing[19]  84
    x[15]     packing[21]  167
    x[15]     packing[23]  29
    x[15]     packing[24]  195
    x[15]     packing[25]  2
    x[15]     packing[27]  166
    x[15]     packing[28]  145
    x[15]     packing[33]  188
    x[15]     packing[35]  121
    x[15]     packing[36]  171
    x[15]     packing[37]  86
    x[15]     packing[39]  78
    x[15]     packing[40]  113
    x[15]     packing[41]  88
    x[15]     packing[43]  55
    x[15]     packing[44]  26
    x[15]     packing[47]  166
    x[15]     packing[48]  77
    x[15]     packing[49]  88
    x[16]     OBJ       13
    x[16]     packing[0]  191
    x[16]     packing[2]  88
    x[16]     packing[3]  72
    x[16]     packing[4]  92
    x[16]     packing[7]  171
    x[16]     packing[8]  174
    x[16]     packing[9]  55
    x[16]     packing[10]  50
    x[16]     packing[11]  151
    x[16]     packing[12]  4
    x[16]     packing[13]  172
    x[16]     packing[14]  176
    x[16]     packing[16]  121
    x[16]     packing[17]  134
    x[16]     packing[18]  185
    x[16]     packing[20]  42
    x[16]     packing[21]  94
    x[16]     packing[22]  25
    x[16]     packing[23]  13
    x[16]     packing[24]  133
    x[16]     packing[25]  65
    x[16]     packing[27]  118
    x[16]     packing[28]  143
    x[16]     packing[29]  119
    x[16]     packing[31]  162
    x[16]     packing[33]  65
    x[16]     packing[34]  111
    x[16]     packing[36]  137
    x[16]     packing[37]  189
    x[16]     packing[38]  44
    x[16]     packing[39]  10
    x[16]     packing[41]  17
    x[16]     packing[43]  93
    x[16]     packing[44]  37
    x[16]     packing[45]  186
    x[16]     packing[46]  118
    x[16]     packing[47]  165
    x[16]     packing[49]  11
    x[17]     OBJ       104
    x[17]     packing[0]  103
    x[17]     packing[1]  107
    x[17]     packing[2]  86
    x[17]     packing[3]  6
    x[17]     packing[4]  129
    x[17]     packing[5]  117
    x[17]     packing[6]  47
    x[17]     packing[7]  101
    x[17]     packing[10]  106
    x[17]     packing[11]  101
    x[17]     packing[14]  3
    x[17]     packing[15]  178
    x[17]     packing[16]  15
    x[17]     packing[17]  19
    x[17]     packing[18]  117
    x[17]     packing[20]  7
    x[17]     packing[22]  177
    x[17]     packing[23]  72
    x[17]     packing[25]  39
    x[17]     packing[27]  135
    x[17]     packing[28]  67
    x[17]     packing[29]  185
    x[17]     packing[31]  168
    x[17]     packing[32]  58
    x[17]     packing[34]  146
    x[17]     packing[35]  31
    x[17]     packing[36]  94
    x[17]     packing[37]  93
    x[17]     packing[39]  180
    x[17]     packing[40]  86
    x[17]     packing[41]  96
    x[17]     packing[42]  138
    x[17]     packing[43]  180
    x[17]     packing[44]  43
    x[17]     packing[45]  102
    x[17]     packing[46]  105
    x[17]     packing[48]  138
    x[17]     packing[49]  165
    x[18]     OBJ       141
    x[18]     packing[1]  184
    x[18]     packing[2]  67
    x[18]     packing[3]  48
    x[18]     packing[4]  76
    x[18]     packing[5]  197
    x[18]     packing[6]  16
    x[18]     packing[7]  56
    x[18]     packing[8]  149
    x[18]     packing[10]  188
    x[18]     packing[11]  196
    x[18]     packing[12]  60
    x[18]     packing[13]  168
    x[18]     packing[14]  99
    x[18]     packing[16]  60
    x[18]     packing[17]  39
    x[18]     packing[19]  165
    x[18]     packing[20]  133
    x[18]     packing[23]  66
    x[18]     packing[24]  107
    x[18]     packing[27]  135
    x[18]     packing[28]  15
    x[18]     packing[29]  81
    x[18]     packing[30]  190
    x[18]     packing[31]  188
    x[18]     packing[33]  60
    x[18]     packing[34]  2
    x[18]     packing[35]  101
    x[18]     packing[36]  173
    x[18]     packing[38]  129
    x[18]     packing[39]  33
    x[18]     packing[40]  90
    x[18]     packing[41]  81
    x[18]     packing[42]  26
    x[18]     packing[43]  131
    x[18]     packing[44]  30
    x[18]     packing[46]  164
    x[18]     packing[47]  61
    x[18]     packing[49]  106
    x[19]     OBJ       28
    x[19]     packing[0]  139
    x[19]     packing[1]  178
    x[19]     packing[2]  56
    x[19]     packing[3]  159
    x[19]     packing[4]  46
    x[19]     packing[5]  48
    x[19]     packing[6]  170
    x[19]     packing[8]  162
    x[19]     packing[10]  85
    x[19]     packing[11]  10
    x[19]     packing[12]  161
    x[19]     packing[13]  48
    x[19]     packing[14]  170
    x[19]     packing[15]  108
    x[19]     packing[16]  132
    x[19]     packing[17]  176
    x[19]     packing[18]  48
    x[19]     packing[19]  177
    x[19]     packing[21]  7
    x[19]     packing[22]  88
    x[19]     packing[23]  37
    x[19]     packing[25]  72
    x[19]     packing[27]  159
    x[19]     packing[28]  121
    x[19]     packing[29]  161
    x[19]     packing[30]  128
    x[19]     packing[31]  63
    x[19]     packing[32]  117
    x[19]     packing[33]  54
    x[19]     packing[35]  73
    x[19]     packing[36]  82
    x[19]     packing[37]  173
    x[19]     packing[38]  70
    x[19]     packing[39]  2
    x[19]     packing[40]  16
    x[19]     packing[42]  80
    x[19]     packing[43]  10
    x[19]     packing[44]  36
    x[19]     packing[45]  76
    x[19]     packing[46]  2
    x[19]     packing[47]  143
    x[19]     packing[48]  84
    x[19]     packing[49]  31
    x[20]     OBJ       134
    x[20]     packing[3]  160
    x[20]     packing[4]  64
    x[20]     packing[5]  81
    x[20]     packing[6]  158
    x[20]     packing[7]  139
    x[20]     packing[8]  169
    x[20]     packing[9]  199
    x[20]     packing[11]  95
    x[20]     packing[14]  55
    x[20]     packing[15]  124
    x[20]     packing[16]  188
    x[20]     packing[17]  172
    x[20]     packing[19]  148
    x[20]     packing[20]  95
    x[20]     packing[21]  173
    x[20]     packing[23]  27
    x[20]     packing[24]  62
    x[20]     packing[25]  52
    x[20]     packing[26]  181
    x[20]     packing[27]  24
    x[20]     packing[28]  175
    x[20]     packing[29]  55
    x[20]     packing[30]  106
    x[20]     packing[31]  13
    x[20]     packing[32]  192
    x[20]     packing[33]  48
    x[20]     packing[34]  12
    x[20]     packing[35]  122
    x[20]     packing[37]  36
    x[20]     packing[38]  20
    x[20]     packing[39]  146
    x[20]     packing[40]  102
    x[20]     packing[41]  51
    x[20]     packing[42]  7
    x[20]     packing[43]  181
    x[20]     packing[44]  187
    x[20]     packing[46]  154
    x[20]     packing[49]  158
    MARKER    'MARKER'                 'INTEND'
RHS
    RHS1      packing[0]  768
    RHS1      packing[1]  1014
    RHS1      packing[2]  1082
    RHS1      packing[3]  850
    RHS1      packing[4]  809
    RHS1      packing[5]  875
    RHS1      packing[6]  567
    RHS1      packing[7]  811
    RHS1      packing[8]  872
    RHS1      packing[9]  939
    RHS1      packing[10]  708
    RHS1      packing[11]  877
    RHS1      packing[12]  533
    RHS1      packing[13]  813
    RHS1      packing[14]  945
    RHS1      packing[15]  755
    RHS1      packing[16]  598
    RHS1      packing[17]  844
    RHS1      packing[18]  610
    RHS1      packing[19]  755
    RHS1      packing[20]  557
    RHS1      packing[21]  656
    RHS1      packing[22]  817
    RHS1      packing[23]  531
    RHS1      packing[24]  724
    RHS1      packing[25]  808
    RHS1      packing[26]  518
    RHS1      packing[27]  890
    RHS1      packing[28]  753
    RHS1      packing[29]  1049
    RHS1      packing[30]  574
    RHS1      packing[31]  628
    RHS1      packing[32]  672
    RHS1      packing[33]  905
    RHS1      packing[34]  585
    RHS1      packing[35]  848
    RHS1      packing[36]  739
    RHS1      packing[37]  972
    RHS1      packing[38]  687
    RHS1      packing[39]  963
    RHS1      packing[40]  975
    RHS1      packing[41]  588
    RHS1      packing[42]  657
    RHS1      packing[43]  850
    RHS1      packing[44]  1085
    RHS1      packing[45]  784
    RHS1      packing[46]  689
    RHS1      packing[47]  769
    RHS1      packing[48]  565
    RHS1      packing[49]  915
BOUNDS
 BV BND1      x[1]    
 BV BND1      x[2]    
 BV BND1      x[3]    
 BV BND1      x[4]    
 BV BND1      x[5]    
 BV BND1      x[6]    
 BV BND1      x[7]    
 BV BND1      x[8]    
 BV BND1      x[9]    
 BV BND1      x[10]   
 BV BND1      x[11]   
 BV BND1      x[12]   
 BV BND1      x[13]   
 BV BND1      x[14]   
 BV BND1      x[15]   
 BV BND1      x[16]   
 BV BND1      x[17]   
 BV BND1      x[18]   
 BV BND1      x[19]   
 BV BND1      x[20]   
ENDATA
